# Solution for model GasLib-40
# Objective value = 2.9938743199571192e+01
loadshed[innode_1] 0
loadshed[innode_2] 0
loadshed[innode_3] 0
loadshed[innode_4] 0
loadshed[innode_5] 0
loadshed[innode_6] 0
loadshed[innode_7] 0
loadshed[innode_8] 0
loadshed[source_1] -1.8822368212577123e-01
loadshed[source_2] 1.6778472389252053e-01
loadshed[source_3] 2.0981646847868707e-01
loadshed[sink_1] 0
loadshed[sink_2] 0
loadshed[sink_3] 0
loadshed[sink_4] 0
loadshed[sink_5] 0
loadshed[sink_6] 0
loadshed[sink_7] 0
loadshed[sink_8] 0
loadshed[sink_9] 0
loadshed[sink_10] 0
loadshed[sink_11] 0
loadshed[sink_12] 1
loadshed[sink_13] 0
loadshed[sink_14] 0
loadshed[sink_15] 0
loadshed[sink_16] 0
loadshed[sink_17] 0
loadshed[sink_18] 0
loadshed[sink_19] 0
loadshed[sink_20] 0
loadshed[sink_21] 8.3064926570626374e-01
loadshed[sink_22] 0
loadshed[sink_23] 0
loadshed[sink_24] 0
loadshed[sink_25] 0
loadshed[sink_26] 0
loadshed[sink_27] 0
loadshed[sink_28] 0
loadshed[sink_29] 0
flow[source_1,sink_3] 1.8784661196939709e+02
flow[innode_1,sink_16] 1.6354166666666970e+01
flow[innode_6,sink_13] -1.0441167326962436e+01
flow[sink_13,sink_14] -2.6795333993629104e+01
flow[sink_14,sink_10] -4.3149500660295772e+01
flow[sink_25,sink_26] 2.1537375680042908e+02
flow[sink_26,sink_9] 8.1770833333333655e+01
flow[sink_9,sink_18] 6.5416666666666671e+01
flow[sink_26,sink_4] 1.1724875680042877e+02
flow[sink_4,sink_20] 2.8446061980498826e+01
flow[sink_18,sink_6] 4.9062500000000313e+01
flow[sink_25,innode_8] -1.5513827863606070e+02
flow[sink_6,sink_7] 0
flow[sink_6,sink_22] 3.2708333333333641e+01
flow[sink_7,sink_24] 1.9123756800428811e+01
flow[sink_22,sink_1] 1.6354166666666970e+01
flow[sink_24,sink_21] 2.7695901337621454e+00
flow[sink_21,sink_12] 0
flow[sink_7,sink_5] -3.5477923467095479e+01
flow[sink_5,sink_17] -5.1832090133762151e+01
flow[sink_17,sink_4] -7.2448528153263268e+01
flow[sink_17,sink_8] 4.2622713528344507e+00
flow[sink_3,sink_23] 16.3541666666697
flow[sink_8,sink_20] -1.2091895313832197e+01
flow[sink_25,sink_20] 0
flow[sink_25,sink_15] -6.6148477504073568e+01
flow[sink_15,sink_29] 0
flow[sink_29,sink_28] 1.6354166666667879e+01
flow[sink_29,sink_2] 9.8856810837406911e+01
flow[sink_2,sink_15] 8.2502644170740240e+01
flow[sink_29,innode_7] -1.3156514417074146e+02
flow[innode_4,sink_19] 4.8662010510196914e+01
flow[sink_19,innode_3] 44.9990670955813
flow[innode_4,innode_5] 7.6258323483432875e+01
flow[sink_27,innode_5] -7.6258323483432875e+01
flow[sink_27,sink_19] 59.9041568167662
flow[sink_10,sink_11] 3.2708333333333641e+01
flow[sink_10,innode_2] -4.7212933564714774e+01
flow[sink_10,innode_3] -44.9990670955813
flow[innode_6,sink_25] 1.0441167326962436e+01
flow[sink_11,innode_1] 1.6354166666666970e+01
flow[sink_19,innode_2] 4.7212933564714774e+01
flow[source_3,innode_4] 1.2492033399362978e+02
flow[source_2,innode_7] 1.3156514417074146e+02
flow[sink_3,innode_8] 1.5513827863606070e+02
pressure[innode_1] 7.6394728120421760e+01
pressure[innode_2] 7.9041827962722451e+01
pressure[innode_3] 7.8942182624230853e+01
pressure[innode_4] 81.01325
pressure[innode_5] 8.0960795503994248e+01
pressure[innode_6] 7.4400005691760285e+01
pressure[innode_7] 81.01325
pressure[innode_8] 8.0385350536193087e+01
pressure[source_1] 81.01325
pressure[source_2] 81.01325
pressure[source_3] 81.01325
pressure[sink_1] 4.8559000648742256e+01
pressure[sink_2] 7.4990243214103415e+01
pressure[sink_3] 8.0385350536193087e+01
pressure[sink_4] 4.4324048089363473e+01
pressure[sink_5] 3.7694188173125944e+01
pressure[sink_6] 5.0660078259129634e+01
pressure[sink_7] 2.2939197240932252e+01
pressure[sink_8] 4.1394477663731742e+01
pressure[sink_9] 5.4337163062587919e+01
pressure[sink_10] 76.5464294280253
pressure[sink_11] 7.6394728120421760e+01
pressure[sink_12] 1.01325
pressure[sink_13] 7.4457566102352672e+01
pressure[sink_14] 7.4505518634992043e+01
pressure[sink_15] 7.4720890264175836e+01
pressure[sink_16] 7.5373078285604080e+01
pressure[sink_17] 4.1555304234982870e+01
pressure[sink_18] 5.1970193087389262e+01
pressure[sink_19] 7.9041827962722451e+01
pressure[sink_20] 4.2237112715504637e+01
pressure[sink_21] 1.01325
pressure[sink_22] 4.9622769791097269e+01
pressure[sink_23] 80.2206325245333
pressure[sink_24] 1.0439206374752890e+00
pressure[sink_25] 7.4400005691760285e+01
pressure[sink_26] 5.9231358482299271e+01
pressure[sink_27] 8.0327992329312309e+01
pressure[sink_28] 7.7199115525675623e+01
pressure[sink_29] 77.4943977992928
interdiction[source_1,sink_3] 0
interdiction[innode_1,sink_16] 0
interdiction[innode_6,sink_13] 0
interdiction[sink_13,sink_14] 0
interdiction[sink_14,sink_10] 0
interdiction[sink_25,sink_26] 0
interdiction[sink_26,sink_9] 0
interdiction[sink_9,sink_18] 0
interdiction[sink_26,sink_4] 0
interdiction[sink_4,sink_20] 0
interdiction[sink_18,sink_6] 0
interdiction[sink_25,innode_8] 0
interdiction[sink_6,sink_7] 1
interdiction[sink_6,sink_22] 0
interdiction[sink_7,sink_24] 0
interdiction[sink_22,sink_1] 0
interdiction[sink_24,sink_21] 0
interdiction[sink_21,sink_12] 0
interdiction[sink_7,sink_5] 0
interdiction[sink_5,sink_17] 0
interdiction[sink_17,sink_4] 0
interdiction[sink_17,sink_8] 0
interdiction[sink_3,sink_23] 0
interdiction[sink_8,sink_20] 0
interdiction[sink_25,sink_20] 1
interdiction[sink_25,sink_15] 0
interdiction[sink_15,sink_29] 1
interdiction[sink_29,sink_28] 0
interdiction[sink_29,sink_2] 0
interdiction[sink_2,sink_15] 0
interdiction[sink_29,innode_7] 0
interdiction[innode_4,sink_19] 0
interdiction[sink_19,innode_3] 0
interdiction[innode_4,innode_5] 0
interdiction[sink_27,innode_5] 0
interdiction[sink_27,sink_19] 0
interdiction[sink_10,sink_11] 0
interdiction[sink_10,innode_2] 0
interdiction[sink_10,innode_3] 0
interdiction[innode_6,sink_25] 0
interdiction[sink_11,innode_1] 0
interdiction[sink_19,innode_2] 0
interdiction[source_3,innode_4] 0
interdiction[source_2,innode_7] 0
interdiction[sink_3,innode_8] 0
WCcheckFlow[source_1,sink_3] 39
WCcheckFlow[innode_1,sink_16] 1
WCcheckFlow[innode_6,sink_13] 13
WCcheckFlow[sink_13,sink_14] 12
WCcheckFlow[sink_14,sink_10] 11
WCcheckFlow[sink_25,sink_26] 15
WCcheckFlow[sink_26,sink_9] 5
WCcheckFlow[sink_9,sink_18] 4
WCcheckFlow[sink_26,sink_4] 9
WCcheckFlow[sink_4,sink_20] 1
WCcheckFlow[sink_18,sink_6] 3
WCcheckFlow[sink_25,innode_8] -36
WCcheckFlow[sink_6,sink_7] 0
WCcheckFlow[sink_6,sink_22] 2
WCcheckFlow[sink_7,sink_24] 3
WCcheckFlow[sink_22,sink_1] 1
WCcheckFlow[sink_24,sink_21] 2
WCcheckFlow[sink_21,sink_12] 1
WCcheckFlow[sink_7,sink_5] -4
WCcheckFlow[sink_5,sink_17] -5
WCcheckFlow[sink_17,sink_4] -7
WCcheckFlow[sink_17,sink_8] 1
WCcheckFlow[sink_3,sink_23] 1
WCcheckFlow[sink_8,sink_20] 0
WCcheckFlow[sink_25,sink_20] 0
WCcheckFlow[sink_25,sink_15] 6
WCcheckFlow[sink_15,sink_29] 0
WCcheckFlow[sink_29,sink_28] 1
WCcheckFlow[sink_29,sink_2] -4
WCcheckFlow[sink_2,sink_15] -5
WCcheckFlow[sink_29,innode_7] 2
WCcheckFlow[innode_4,sink_19] -4
WCcheckFlow[sink_19,innode_3] -5
WCcheckFlow[innode_4,innode_5] 2
WCcheckFlow[sink_27,innode_5] -1
WCcheckFlow[sink_27,sink_19] 0
WCcheckFlow[sink_10,sink_11] 3
WCcheckFlow[sink_10,innode_2] 1
WCcheckFlow[sink_10,innode_3] 6
WCcheckFlow[innode_6,sink_25] -14
WCcheckFlow[sink_11,innode_1] 2
WCcheckFlow[sink_19,innode_2] 0
WCcheckFlow[source_3,innode_4] -1
WCcheckFlow[source_2,innode_7] -1
WCcheckFlow[sink_3,innode_8] 37
